192
500
398	1
397	2
395	1
394	2
393	1
387	1
384	2
383	1
381	3
380	1
377	1
375	1
373	3
372	2
370	1
369	2
368	2
367	1
365	1
363	1
362	1
361	2
360	1
359	2
358	1
357	1
355	2
353	1
350	2
349	2
348	1
346	3
345	1
343	2
341	1
338	2
334	1
333	3
329	1
327	2
325	1
322	3
321	3
320	1
319	1
318	1
314	1
310	1
309	2
308	1
307	2
304	2
303	1
302	2
301	3
300	1
299	1
296	1
294	1
291	1
290	2
289	2
286	1
282	1
281	1
277	1
275	1
273	2
272	2
269	1
268	1
266	1
265	1
258	1
257	1
256	1
254	1
253	1
252	1
251	2
250	1
248	1
246	4
244	1
242	2
241	2
240	1
239	1
236	4
234	1
233	2
229	2
227	2
226	1
223	1
222	1
221	3
220	1
219	1
218	2
217	1
216	2
215	1
213	2
207	2
206	1
203	1
200	1
199	3
191	1
188	1
187	1
185	1
182	4
179	1
178	1
173	3
172	4
171	1
168	4
167	1
166	1
165	1
163	2
162	2
158	3
152	3
149	3
145	1
140	1
139	2
137	1
136	1
135	1
134	2
133	1
131	2
130	1
129	1
128	4
127	1
126	1
123	2
122	1
121	2
120	2
118	5
117	1
115	1
113	2
112	2
108	3
107	2
106	2
105	1
103	1
100	1
99	1
97	2
96	1
95	1
94	1
93	1
92	2
89	1
88	1
87	1
86	1
84	1
83	1
81	1
80	1
79	1
77	2
75	2
74	2
72	2
71	2
70	1
68	1
67	2
66	2
65	1
62	1
61	2
59	1
57	3
56	1
53	1
52	1
51	2
50	2
